
  16    0


   0   8 2 3 4 11 12 13 14 15 
   1   5 10 9 7 6 5 
   8   3 8 7 6 
   4   1 5 
   2   1 16
   8   1 16
   2   1 16
   6   1 16
   9   1 16
   6   1 16
   1   1 16
   6   1 16
   8   1 16
   6   1 16
   9   1 16
   0   0 
